p edge 20 52 5
v 2 5 14
v 6 1 2 3 11 13 17
v 6 4 8 9 10 12 18
v 2 16 20
v 4 6 7 15 19
e 1 11
e 1 12
e 1 15
e 2 3
e 2 7
e 2 13
e 2 18
e 3 7
e 4 7
e 4 13
e 4 16
e 4 18
e 5 7
e 5 9
e 5 12
e 5 13
e 5 14
e 5 20
e 6 8
e 6 10
e 6 11
e 6 12
e 6 13
e 6 14
e 6 19
e 6 20
e 7 9
e 7 13
e 7 14
e 8 16
e 8 17
e 9 10
e 9 13
e 9 18
e 9 19
e 10 14
e 10 20
e 11 12
e 11 16
e 11 17
e 11 20
e 12 16
e 12 18
e 13 16
e 13 18
e 13 19
e 14 20
e 15 17
e 15 18
e 16 19
e 18 19
e 19 20
